proyfinal/src/viki/013/andrea/andrea-localstore/experimentInOfficeAgust.take6/worker_1/c169db29-b473-40a3-b7f0-6e7961b6258d.als.cnf.out
Reading from standard input... Use '--help' for help.
============================[ Problem Statistics ]=============================
|                                                                             |
|  Number of variables:         87638                                         |
|  Number of clauses:          161767                                         |
|  Parse time:                   0.03 s                                       |
|                                                                             |
============================[ Search Statistics ]==============================
| Conflicts |          ORIGINAL         |          LEARNT          | Progress |
|           |    Vars  Clauses Literals |    Limit  Clauses Lit/Cl |          |
===============================================================================
|       100 |   63832   110385   275958 |    40474      100     31 | 27.164 % |
|       250 |   63832   110385   275958 |    44521      250     86 | 27.164 % |
|       475 |   63812   110301   275765 |    48974      474     66 | 27.187 % |
|       812 |   63812   110301   275765 |    53871      811     72 | 27.187 % |
|      1318 |   63812   110301   275765 |    59258     1317     62 | 27.187 % |
|      2077 |   63812   110301   275765 |    65184     2076     66 | 27.187 % |
|      3216 |   63812   110301   275765 |    71703     3215     63 | 27.187 % |
|      4924 |   63733   109943   274940 |    78873     4912     64 | 27.277 % |
|      7486 |   50306    69601   175789 |    86760     7070     59 | 42.598 % |
|     11330 |   49986    68373   172676 |    95436    10330     53 | 42.963 % |
|     17096 |   49710    67361   170338 |   104980    13476     48 | 43.278 % |
===============================================================================
restarts              : 63
conflicts             : 17757          (6942 /sec)
decisions             : 51495          (0.00 % random) (20131 /sec)
propagations          : 28072334       (10974621 /sec)
conflict literals     : 833020         (53.02 % deleted)
Memory used           : 29.84 MB
CPU time              : 2.55793 s

UNSATISFIABLE
